p cnf 35 77
c x0 -> 32
c x1 -> 14
c x2 -> 33
2 3 -1 0
-2 -3 -1 0
2 -3 1 0
-2 3 1 0
4 2 0
-4 -2 0
5 3 0
-5 -3 0
6 -4 0
7 -4 0
-6 -7 4 0
8 5 0
9 5 0
-8 -9 -5 0
10 6 0
-10 -6 0
11 7 0
-11 -7 0
12 8 0
-12 -8 0
13 9 0
-13 -9 0
14 -10 0
15 -10 0
-14 -15 10 0
16 -11 0
17 -11 0
-16 -17 11 0
-14 12 0
-19 12 0
14 19 -12 0
20 -13 0
21 -13 0
-20 -21 13 0
22 -15 0
23 -15 0
-22 -23 15 0
14 16 0
-14 -16 0
15 17 0
-15 -17 0
24 -19 0
25 -19 0
-24 -25 19 0
14 20 0
-14 -20 0
19 21 0
-19 -21 0
26 22 0
-26 -22 0
27 23 0
-27 -23 0
28 24 0
-28 -24 0
29 25 0
-29 -25 0
30 -26 0
31 -26 0
-30 -31 26 0
32 -27 0
33 -27 0
-32 -33 27 0
34 -28 0
35 -28 0
-34 -35 28 0
32 -29 0
33 -29 0
-32 -33 29 0
32 30 0
-32 -30 0
33 31 0
-33 -31 0
32 34 0
-32 -34 0
33 35 0
-33 -35 0
1 0
